N = 60;
W = 100;
H = 100;
ItemWidth = [ 8, 59, 90, 4, 47, 21, 21, 39, 80, 57, 76, 67, 87, 29, 85, 83, 92, 96, 66, 7, 75, 75, 93, 98, 86, 74, 3, 95, 74, 98, 91, 92, 67, 85, 99, 76, 83, 86, 77, 78, 90, 82, 73, 78, 93, 99, 44, 83, 84, 100, 69, 94, 66, 76, 84, 72, 97, 84, 79, 76 ];
ItemHeight = [ 100, 97, 94, 85, 82, 78, 75, 67, 53, 53, 48, 47, 45, 45, 44, 44, 44, 43, 39, 39, 38, 37, 36, 34, 32, 31, 31, 27, 27, 26, 26, 26, 25, 24, 24, 23, 23, 23, 22, 22, 19, 17, 14, 12, 12, 12, 11, 10, 10, 8, 8, 7, 7, 5, 5, 4, 4, 3, 3, 1 ];
